p edge 75 555
e 1 5
e 1 11
e 1 15
e 1 22
e 1 26
e 1 27
e 1 28
e 1 29
e 1 30
e 1 33
e 1 34
e 1 35
e 1 39
e 1 41
e 1 45
e 1 46
e 1 51
e 1 52
e 1 54
e 1 56
e 1 57
e 1 63
e 1 66
e 1 69
e 1 72
e 1 74
e 2 3
e 2 7
e 2 9
e 2 13
e 2 17
e 2 18
e 2 20
e 2 27
e 2 34
e 2 39
e 2 45
e 2 49
e 2 50
e 2 56
e 2 61
e 2 64
e 2 66
e 2 71
e 2 75
e 3 19
e 3 26
e 3 27
e 3 33
e 3 44
e 3 48
e 3 51
e 3 55
e 3 57
e 3 62
e 3 64
e 3 68
e 4 5
e 4 7
e 4 10
e 4 17
e 4 28
e 4 37
e 4 42
e 4 44
e 4 52
e 4 59
e 4 64
e 4 70
e 4 73
e 5 19
e 5 51
e 5 55
e 5 68
e 5 69
e 5 71
e 6 16
e 6 23
e 6 28
e 6 29
e 6 43
e 6 44
e 6 45
e 6 46
e 6 48
e 6 53
e 6 58
e 6 59
e 6 67
e 6 73
e 7 10
e 7 11
e 7 14
e 7 16
e 7 17
e 7 31
e 7 33
e 7 41
e 7 42
e 7 45
e 7 50
e 7 52
e 7 64
e 7 69
e 7 71
e 7 73
e 8 9
e 8 11
e 8 15
e 8 22
e 8 43
e 8 46
e 8 49
e 8 53
e 8 54
e 8 57
e 8 58
e 9 10
e 9 16
e 9 22
e 9 24
e 9 25
e 9 27
e 9 28
e 9 29
e 9 31
e 9 34
e 9 35
e 9 37
e 9 43
e 9 48
e 9 52
e 9 53
e 9 55
e 9 59
e 9 69
e 9 70
e 10 12
e 10 18
e 10 26
e 10 27
e 10 29
e 10 30
e 10 31
e 10 43
e 10 44
e 10 45
e 10 46
e 10 47
e 10 50
e 10 52
e 10 54
e 10 58
e 10 62
e 10 68
e 11 28
e 11 29
e 11 30
e 11 31
e 11 38
e 11 46
e 11 51
e 11 56
e 11 59
e 11 62
e 11 65
e 11 69
e 11 71
e 11 73
e 12 21
e 12 22
e 12 28
e 12 31
e 12 42
e 12 45
e 12 61
e 12 62
e 12 66
e 12 72
e 12 73
e 13 24
e 13 27
e 13 35
e 13 38
e 13 48
e 13 51
e 13 57
e 13 67
e 13 68
e 13 72
e 14 19
e 14 25
e 14 26
e 14 31
e 14 32
e 14 34
e 14 36
e 14 39
e 14 40
e 14 41
e 14 46
e 14 53
e 14 54
e 14 60
e 14 63
e 14 68
e 14 73
e 15 17
e 15 27
e 15 31
e 15 32
e 15 42
e 15 48
e 15 49
e 15 53
e 15 55
e 15 56
e 15 58
e 15 61
e 15 64
e 15 67
e 16 20
e 16 22
e 16 41
e 16 47
e 16 56
e 16 63
e 17 18
e 17 20
e 17 21
e 17 22
e 17 23
e 17 26
e 17 35
e 17 41
e 17 44
e 17 48
e 17 50
e 17 53
e 17 54
e 17 57
e 17 59
e 17 66
e 17 69
e 18 20
e 18 23
e 18 28
e 18 35
e 18 38
e 18 40
e 18 45
e 18 52
e 18 55
e 18 58
e 19 23
e 19 25
e 19 27
e 19 30
e 19 41
e 19 57
e 19 58
e 19 60
e 19 66
e 19 67
e 19 75
e 20 26
e 20 27
e 20 28
e 20 39
e 20 42
e 20 43
e 20 46
e 20 47
e 20 48
e 20 60
e 20 74
e 21 24
e 21 33
e 21 38
e 21 42
e 21 48
e 21 49
e 21 52
e 21 53
e 21 57
e 21 58
e 21 62
e 21 64
e 22 24
e 22 28
e 22 41
e 22 43
e 22 46
e 22 47
e 22 52
e 22 53
e 22 56
e 22 60
e 22 61
e 22 62
e 22 67
e 22 70
e 23 37
e 23 42
e 23 48
e 23 62
e 23 65
e 23 68
e 23 69
e 23 73
e 24 29
e 24 34
e 24 37
e 24 52
e 24 53
e 24 54
e 24 64
e 24 68
e 24 73
e 25 27
e 25 29
e 25 30
e 25 37
e 25 41
e 25 44
e 25 46
e 25 48
e 25 50
e 25 69
e 25 74
e 26 27
e 26 30
e 26 37
e 26 38
e 26 41
e 26 43
e 26 48
e 26 56
e 26 64
e 26 65
e 26 71
e 27 32
e 27 35
e 27 36
e 27 41
e 27 43
e 27 56
e 27 69
e 27 72
e 28 29
e 28 37
e 28 43
e 28 44
e 28 46
e 28 48
e 28 56
e 28 57
e 28 62
e 28 70
e 29 33
e 29 45
e 29 46
e 29 54
e 29 58
e 29 70
e 29 71
e 29 74
e 30 41
e 30 52
e 30 56
e 30 63
e 30 64
e 31 37
e 31 38
e 31 46
e 31 47
e 31 49
e 31 62
e 31 70
e 32 36
e 32 39
e 32 45
e 32 49
e 32 50
e 32 56
e 32 58
e 32 66
e 32 69
e 32 72
e 32 74
e 33 42
e 33 47
e 33 48
e 33 51
e 33 59
e 33 63
e 33 67
e 33 68
e 33 69
e 33 74
e 34 36
e 34 39
e 34 49
e 34 65
e 34 66
e 34 74
e 35 37
e 35 51
e 35 55
e 35 63
e 35 68
e 36 40
e 36 52
e 36 61
e 36 67
e 36 73
e 36 74
e 37 39
e 37 41
e 37 42
e 37 58
e 37 63
e 37 66
e 37 72
e 38 40
e 38 47
e 38 50
e 38 57
e 38 59
e 38 65
e 38 67
e 38 75
e 39 42
e 39 47
e 39 54
e 39 55
e 39 71
e 39 73
e 40 42
e 40 44
e 40 51
e 40 55
e 40 56
e 40 57
e 40 64
e 40 66
e 40 71
e 40 72
e 41 52
e 41 65
e 42 59
e 42 64
e 42 66
e 42 67
e 43 44
e 43 45
e 43 62
e 43 65
e 43 68
e 43 70
e 43 72
e 43 74
e 44 56
e 44 60
e 44 61
e 44 64
e 44 65
e 44 67
e 44 68
e 44 73
e 45 47
e 45 48
e 45 51
e 45 63
e 45 67
e 45 72
e 46 53
e 46 55
e 46 64
e 46 69
e 46 73
e 47 53
e 47 54
e 47 64
e 47 68
e 47 70
e 48 51
e 48 60
e 49 53
e 49 54
e 49 55
e 49 64
e 49 72
e 50 52
e 50 53
e 50 54
e 50 62
e 51 52
e 51 56
e 51 57
e 51 59
e 51 75
e 52 60
e 52 61
e 52 63
e 53 63
e 53 64
e 53 66
e 53 69
e 54 56
e 54 61
e 54 73
e 54 74
e 55 56
e 55 58
e 55 62
e 55 68
e 55 69
e 56 63
e 56 68
e 56 71
e 56 73
e 57 59
e 57 60
e 57 63
e 57 64
e 57 72
e 58 60
e 58 61
e 58 67
e 58 69
e 59 66
e 59 67
e 59 73
e 60 64
e 60 67
e 60 70
e 61 67
e 61 68
e 61 73
e 63 65
e 63 75
e 64 72
e 64 73
e 64 74
e 65 71
e 65 75
e 66 69
e 67 71
e 68 70
e 68 71
e 69 75
e 70 73
e 70 74
e 71 74
